wcsp 100 3 501 512409557603043100
3 3 3 3 3 3 3 3 3 3 3 3 3 3 3 3 3 3 3 3 3 3 3 3 3 3 3 3 3 3 3 3 3 3 3 3 3 3 3 3 3 3 3 3 3 3 3 3 3 3 3 3 3 3 3 3 3 3 3 3 3 3 3 3 3 3 3 3 3 3 3 3 3 3 3 3 3 3 3 3 3 3 3 3 3 3 3 3 3 3 3 3 3 3 3 3 3 3 3 3
2 18 25 0 9
0 0 0
0 1 3
0 2 0
1 0 2
1 1 3
1 2 0
2 0 2
2 1 1
2 2 0
2 34 89 0 9
0 0 0
0 1 1
0 2 0
1 0 0
1 1 3
1 2 1
2 0 3
2 1 0
2 2 3
2 14 60 0 9
0 0 3
0 1 0
0 2 1
1 0 3
1 1 0
1 2 0
2 0 1
2 1 1
2 2 0
2 54 59 0 9
0 0 0
0 1 0
0 2 0
1 0 1
1 1 2
1 2 1
2 0 3
2 1 2
2 2 0
2 36 73 0 9
0 0 2
0 1 0
0 2 0
1 0 0
1 1 0
1 2 1
2 0 3
2 1 3
2 2 3
2 11 22 0 9
0 0 1
0 1 1
0 2 0
1 0 3
1 1 0
1 2 1
2 0 0
2 1 0
2 2 1
2 61 93 0 9
0 0 1
0 1 3
0 2 1
1 0 0
1 1 2
1 2 3
2 0 0
2 1 0
2 2 0
2 3 56 0 9
0 0 0
0 1 1
0 2 2
1 0 3
1 1 1
1 2 2
2 0 0
2 1 0
2 2 0
2 56 62 0 9
0 0 3
0 1 0
0 2 3
1 0 0
1 1 2
1 2 2
2 0 3
2 1 0
2 2 0
2 17 90 0 9
0 0 3
0 1 0
0 2 0
1 0 0
1 1 2
1 2 3
2 0 1
2 1 0
2 2 2
2 5 55 0 9
0 0 2
0 1 1
0 2 0
1 0 3
1 1 0
1 2 0
2 0 0
2 1 3
2 2 2
2 46 56 0 9
0 0 3
0 1 2
0 2 0
1 0 3
1 1 0
1 2 0
2 0 1
2 1 0
2 2 2
2 10 16 0 9
0 0 2
0 1 0
0 2 0
1 0 0
1 1 2
1 2 2
2 0 1
2 1 2
2 2 0
2 2 17 0 9
0 0 0
0 1 0
0 2 2
1 0 3
1 1 1
1 2 3
2 0 1
2 1 0
2 2 0
2 28 43 0 9
0 0 0
0 1 0
0 2 2
1 0 0
1 1 3
1 2 3
2 0 1
2 1 0
2 2 3
2 78 79 0 9
0 0 0
0 1 0
0 2 0
1 0 3
1 1 1
1 2 3
2 0 2
2 1 0
2 2 3
2 57 92 0 9
0 0 3
0 1 0
0 2 0
1 0 2
1 1 1
1 2 2
2 0 1
2 1 0
2 2 0
2 19 64 0 9
0 0 0
0 1 0
0 2 1
1 0 1
1 1 3
1 2 2
2 0 0
2 1 1
2 2 0
2 0 66 0 9
0 0 1
0 1 0
0 2 1
1 0 0
1 1 2
1 2 1
2 0 0
2 1 3
2 2 0
2 62 91 0 9
0 0 0
0 1 0
0 2 0
1 0 1
1 1 3
1 2 2
2 0 2
2 1 0
2 2 3
2 1 66 0 9
0 0 0
0 1 0
0 2 0
1 0 1
1 1 1
1 2 0
2 0 3
2 1 1
2 2 1
2 46 63 0 9
0 0 0
0 1 0
0 2 1
1 0 0
1 1 2
1 2 2
2 0 1
2 1 0
2 2 2
2 15 90 0 9
0 0 0
0 1 3
0 2 0
1 0 1
1 1 2
1 2 2
2 0 0
2 1 0
2 2 2
2 22 37 0 9
0 0 1
0 1 3
0 2 3
1 0 0
1 1 0
1 2 1
2 0 0
2 1 0
2 2 1
2 32 65 0 9
0 0 0
0 1 0
0 2 0
1 0 2
1 1 0
1 2 3
2 0 2
2 1 1
2 2 2
2 67 87 0 9
0 0 0
0 1 1
0 2 2
1 0 0
1 1 1
1 2 1
2 0 1
2 1 0
2 2 0
2 52 90 0 9
0 0 1
0 1 0
0 2 1
1 0 3
1 1 3
1 2 0
2 0 3
2 1 0
2 2 0
2 65 80 0 9
0 0 2
0 1 0
0 2 2
1 0 3
1 1 0
1 2 0
2 0 2
2 1 0
2 2 3
2 86 97 0 9
0 0 3
0 1 0
0 2 1
1 0 1
1 1 2
1 2 0
2 0 2
2 1 0
2 2 0
2 4 70 0 9
0 0 3
0 1 0
0 2 0
1 0 2
1 1 1
1 2 1
2 0 0
2 1 2
2 2 0
2 3 8 0 9
0 0 0
0 1 1
0 2 1
1 0 2
1 1 0
1 2 2
2 0 0
2 1 2
2 2 0
2 55 69 0 9
0 0 0
0 1 2
0 2 0
1 0 0
1 1 2
1 2 1
2 0 2
2 1 3
2 2 0
2 81 87 0 9
0 0 2
0 1 0
0 2 0
1 0 0
1 1 0
1 2 1
2 0 2
2 1 3
2 2 3
2 3 39 0 9
0 0 3
0 1 2
0 2 1
1 0 0
1 1 0
1 2 3
2 0 3
2 1 0
2 2 0
2 17 57 0 9
0 0 2
0 1 0
0 2 3
1 0 1
1 1 0
1 2 0
2 0 3
2 1 3
2 2 0
2 13 17 0 9
0 0 0
0 1 2
0 2 2
1 0 0
1 1 1
1 2 0
2 0 0
2 1 2
2 2 2
2 37 81 0 9
0 0 0
0 1 1
0 2 1
1 0 3
1 1 1
1 2 3
2 0 0
2 1 0
2 2 0
2 1 77 0 9
0 0 3
0 1 3
0 2 2
1 0 1
1 1 0
1 2 0
2 0 0
2 1 0
2 2 2
2 6 71 0 9
0 0 0
0 1 1
0 2 3
1 0 1
1 1 0
1 2 0
2 0 3
2 1 3
2 2 0
2 14 36 0 9
0 0 1
0 1 0
0 2 1
1 0 1
1 1 3
1 2 0
2 0 0
2 1 2
2 2 0
2 5 26 0 9
0 0 1
0 1 0
0 2 0
1 0 1
1 1 0
1 2 1
2 0 3
2 1 3
2 2 0
2 45 90 0 9
0 0 0
0 1 2
0 2 1
1 0 1
1 1 2
1 2 3
2 0 0
2 1 0
2 2 0
2 34 41 0 9
0 0 1
0 1 0
0 2 3
1 0 3
1 1 0
1 2 1
2 0 2
2 1 0
2 2 0
2 11 15 0 9
0 0 2
0 1 2
0 2 1
1 0 3
1 1 0
1 2 3
2 0 0
2 1 0
2 2 0
2 35 49 0 9
0 0 0
0 1 3
0 2 3
1 0 2
1 1 3
1 2 0
2 0 0
2 1 0
2 2 1
2 7 70 0 9
0 0 0
0 1 3
0 2 1
1 0 0
1 1 2
1 2 0
2 0 3
2 1 0
2 2 3
2 48 58 0 9
0 0 0
0 1 2
0 2 0
1 0 3
1 1 0
1 2 2
2 0 2
2 1 0
2 2 2
2 5 38 0 9
0 0 1
0 1 1
0 2 2
1 0 0
1 1 1
1 2 2
2 0 0
2 1 0
2 2 0
2 28 97 0 9
0 0 2
0 1 0
0 2 0
1 0 0
1 1 2
1 2 0
2 0 2
2 1 2
2 2 1
2 57 58 0 9
0 0 2
0 1 1
0 2 3
1 0 0
1 1 0
1 2 0
2 0 2
2 1 0
2 2 1
2 7 43 0 9
0 0 0
0 1 3
0 2 3
1 0 0
1 1 3
1 2 1
2 0 0
2 1 0
2 2 2
2 36 58 0 9
0 0 2
0 1 0
0 2 0
1 0 1
1 1 0
1 2 3
2 0 3
2 1 0
2 2 2
2 26 48 0 9
0 0 3
0 1 0
0 2 1
1 0 3
1 1 0
1 2 0
2 0 2
2 1 0
2 2 1
2 8 91 0 9
0 0 1
0 1 0
0 2 1
1 0 0
1 1 3
1 2 0
2 0 2
2 1 0
2 2 2
2 18 94 0 9
0 0 3
0 1 2
0 2 0
1 0 1
1 1 0
1 2 0
2 0 0
2 1 2
2 2 1
2 33 41 0 9
0 0 1
0 1 0
0 2 0
1 0 0
1 1 1
1 2 3
2 0 0
2 1 1
2 2 2
2 11 35 0 9
0 0 0
0 1 3
0 2 0
1 0 2
1 1 0
1 2 0
2 0 2
2 1 1
2 2 1
2 12 57 0 9
0 0 1
0 1 0
0 2 3
1 0 0
1 1 0
1 2 3
2 0 0
2 1 2
2 2 3
2 45 48 0 9
0 0 1
0 1 3
0 2 2
1 0 2
1 1 0
1 2 0
2 0 0
2 1 0
2 2 3
2 21 98 0 9
0 0 0
0 1 1
0 2 2
1 0 3
1 1 0
1 2 3
2 0 0
2 1 0
2 2 1
2 15 93 0 9
0 0 3
0 1 0
0 2 1
1 0 3
1 1 2
1 2 0
2 0 0
2 1 3
2 2 0
2 71 91 0 9
0 0 2
0 1 0
0 2 0
1 0 2
1 1 3
1 2 3
2 0 2
2 1 0
2 2 0
2 17 72 0 9
0 0 0
0 1 0
0 2 3
1 0 1
1 1 0
1 2 3
2 0 2
2 1 3
2 2 0
2 3 73 0 9
0 0 0
0 1 3
0 2 2
1 0 2
1 1 0
1 2 0
2 0 1
2 1 1
2 2 0
2 16 36 0 9
0 0 0
0 1 2
0 2 0
1 0 3
1 1 0
1 2 1
2 0 2
2 1 1
2 2 0
2 64 97 0 9
0 0 2
0 1 3
0 2 1
1 0 0
1 1 2
1 2 0
2 0 0
2 1 0
2 2 2
2 8 27 0 9
0 0 0
0 1 0
0 2 3
1 0 3
1 1 0
1 2 2
2 0 2
2 1 2
2 2 0
2 53 93 0 9
0 0 0
0 1 2
0 2 1
1 0 0
1 1 0
1 2 1
2 0 0
2 1 2
2 2 2
2 8 52 0 9
0 0 0
0 1 3
0 2 0
1 0 0
1 1 3
1 2 1
2 0 1
2 1 0
2 2 3
2 56 82 0 9
0 0 0
0 1 0
0 2 3
1 0 0
1 1 1
1 2 2
2 0 1
2 1 0
2 2 2
2 9 49 0 9
0 0 3
0 1 0
0 2 2
1 0 0
1 1 1
1 2 2
2 0 3
2 1 0
2 2 0
2 48 83 0 9
0 0 0
0 1 1
0 2 3
1 0 2
1 1 0
1 2 3
2 0 0
2 1 3
2 2 0
2 16 40 0 9
0 0 0
0 1 2
0 2 0
1 0 2
1 1 0
1 2 2
2 0 3
2 1 0
2 2 1
2 43 79 0 9
0 0 3
0 1 0
0 2 1
1 0 0
1 1 0
1 2 2
2 0 0
2 1 2
2 2 2
2 37 77 0 9
0 0 0
0 1 2
0 2 0
1 0 1
1 1 3
1 2 3
2 0 0
2 1 0
2 2 2
2 3 12 0 9
0 0 3
0 1 3
0 2 2
1 0 0
1 1 2
1 2 0
2 0 0
2 1 0
2 2 1
2 5 6 0 9
0 0 1
0 1 2
0 2 0
1 0 0
1 1 0
1 2 3
2 0 2
2 1 0
2 2 3
2 10 29 0 9
0 0 0
0 1 2
0 2 2
1 0 0
1 1 0
1 2 2
2 0 0
2 1 3
2 2 2
2 4 88 0 9
0 0 2
0 1 0
0 2 0
1 0 0
1 1 2
1 2 3
2 0 2
2 1 1
2 2 0
2 36 48 0 9
0 0 3
0 1 0
0 2 2
1 0 2
1 1 2
1 2 0
2 0 0
2 1 0
2 2 1
2 45 95 0 9
0 0 2
0 1 0
0 2 0
1 0 0
1 1 2
1 2 2
2 0 1
2 1 1
2 2 0
2 16 18 0 9
0 0 2
0 1 3
0 2 0
1 0 2
1 1 0
1 2 0
2 0 3
2 1 1
2 2 0
2 45 50 0 9
0 0 0
0 1 3
0 2 0
1 0 0
1 1 1
1 2 3
2 0 0
2 1 1
2 2 2
2 9 84 0 9
0 0 2
0 1 2
0 2 0
1 0 3
1 1 0
1 2 0
2 0 0
2 1 1
2 2 3
2 48 90 0 9
0 0 0
0 1 0
0 2 3
1 0 0
1 1 3
1 2 3
2 0 0
2 1 3
2 2 2
2 80 81 0 9
0 0 2
0 1 3
0 2 0
1 0 2
1 1 3
1 2 0
2 0 2
2 1 0
2 2 0
2 4 65 0 9
0 0 0
0 1 1
0 2 1
1 0 0
1 1 0
1 2 2
2 0 0
2 1 2
2 2 1
2 4 86 0 9
0 0 1
0 1 0
0 2 3
1 0 0
1 1 0
1 2 2
2 0 2
2 1 1
2 2 0
2 44 82 0 9
0 0 2
0 1 0
0 2 3
1 0 0
1 1 1
1 2 0
2 0 0
2 1 3
2 2 3
2 31 54 0 9
0 0 0
0 1 3
0 2 3
1 0 3
1 1 3
1 2 3
2 0 0
2 1 0
2 2 0
2 54 90 0 9
0 0 0
0 1 1
0 2 2
1 0 0
1 1 2
1 2 0
2 0 3
2 1 0
2 2 1
2 86 99 0 9
0 0 1
0 1 0
0 2 0
1 0 0
1 1 1
1 2 0
2 0 2
2 1 2
2 2 1
2 34 44 0 9
0 0 0
0 1 0
0 2 0
1 0 0
1 1 1
1 2 1
2 0 2
2 1 1
2 2 1
2 46 85 0 9
0 0 0
0 1 2
0 2 3
1 0 3
1 1 2
1 2 3
2 0 0
2 1 0
2 2 0
2 33 42 0 9
0 0 0
0 1 2
0 2 0
1 0 2
1 1 2
1 2 2
2 0 0
2 1 2
2 2 0
2 87 93 0 9
0 0 3
0 1 0
0 2 2
1 0 2
1 1 0
1 2 3
2 0 0
2 1 2
2 2 0
2 19 75 0 9
0 0 0
0 1 1
0 2 3
1 0 1
1 1 1
1 2 0
2 0 3
2 1 0
2 2 0
2 20 94 0 9
0 0 0
0 1 3
0 2 1
1 0 0
1 1 0
1 2 2
2 0 2
2 1 0
2 2 2
2 68 89 0 9
0 0 2
0 1 3
0 2 0
1 0 1
1 1 3
1 2 0
2 0 1
2 1 0
2 2 0
2 34 98 0 9
0 0 0
0 1 1
0 2 2
1 0 0
1 1 3
1 2 3
2 0 0
2 1 2
2 2 0
2 15 25 0 9
0 0 0
0 1 0
0 2 1
1 0 1
1 1 2
1 2 3
2 0 0
2 1 0
2 2 2
2 49 81 0 9
0 0 1
0 1 3
0 2 0
1 0 0
1 1 1
1 2 2
2 0 0
2 1 1
2 2 0
2 2 30 0 9
0 0 1
0 1 3
0 2 0
1 0 0
1 1 0
1 2 2
2 0 2
2 1 0
2 2 2
2 19 60 0 9
0 0 3
0 1 0
0 2 1
1 0 0
1 1 0
1 2 0
2 0 2
2 1 3
2 2 1
2 13 49 0 9
0 0 1
0 1 3
0 2 0
1 0 0
1 1 0
1 2 2
2 0 3
2 1 1
2 2 0
2 33 93 0 9
0 0 1
0 1 3
0 2 0
1 0 3
1 1 2
1 2 0
2 0 0
2 1 0
2 2 3
2 28 34 0 9
0 0 0
0 1 1
0 2 0
1 0 2
1 1 0
1 2 0
2 0 3
2 1 3
2 2 2
2 51 69 0 9
0 0 1
0 1 2
0 2 0
1 0 0
1 1 0
1 2 1
2 0 2
2 1 0
2 2 2
2 42 55 0 9
0 0 0
0 1 1
0 2 0
1 0 3
1 1 0
1 2 3
2 0 1
2 1 3
2 2 0
2 1 95 0 9
0 0 3
0 1 2
0 2 0
1 0 0
1 1 0
1 2 0
2 0 2
2 1 2
2 2 1
2 27 77 0 9
0 0 1
0 1 0
0 2 0
1 0 3
1 1 3
1 2 0
2 0 0
2 1 3
2 2 2
2 8 82 0 9
0 0 3
0 1 2
0 2 0
1 0 0
1 1 1
1 2 0
2 0 0
2 1 2
2 2 3
2 30 56 0 9
0 0 2
0 1 0
0 2 0
1 0 0
1 1 3
1 2 3
2 0 3
2 1 0
2 2 2
2 49 55 0 9
0 0 2
0 1 2
0 2 0
1 0 2
1 1 0
1 2 1
2 0 0
2 1 0
2 2 3
2 36 79 0 9
0 0 2
0 1 0
0 2 2
1 0 0
1 1 0
1 2 2
2 0 0
2 1 3
2 2 1
2 80 99 0 9
0 0 0
0 1 2
0 2 1
1 0 0
1 1 3
1 2 0
2 0 3
2 1 1
2 2 0
2 1 34 0 9
0 0 2
0 1 0
0 2 0
1 0 0
1 1 0
1 2 2
2 0 1
2 1 1
2 2 2
2 49 85 0 9
0 0 1
0 1 0
0 2 0
1 0 0
1 1 2
1 2 0
2 0 1
2 1 1
2 2 2
2 15 51 0 9
0 0 1
0 1 3
0 2 3
1 0 0
1 1 0
1 2 2
2 0 0
2 1 3
2 2 0
2 12 85 0 9
0 0 2
0 1 0
0 2 1
1 0 0
1 1 0
1 2 2
2 0 0
2 1 2
2 2 3
2 33 68 0 9
0 0 0
0 1 0
0 2 0
1 0 3
1 1 1
1 2 0
2 0 1
2 1 3
2 2 3
2 73 93 0 9
0 0 1
0 1 0
0 2 0
1 0 0
1 1 2
1 2 2
2 0 2
2 1 0
2 2 2
2 29 56 0 9
0 0 3
0 1 1
0 2 0
1 0 3
1 1 2
1 2 0
2 0 1
2 1 0
2 2 0
2 17 58 0 9
0 0 3
0 1 1
0 2 0
1 0 1
1 1 0
1 2 1
2 0 2
2 1 0
2 2 0
2 9 43 0 9
0 0 1
0 1 3
0 2 1
1 0 0
1 1 0
1 2 0
2 0 1
2 1 3
2 2 0
2 8 62 0 9
0 0 0
0 1 3
0 2 0
1 0 0
1 1 1
1 2 3
2 0 0
2 1 2
2 2 3
2 40 66 0 9
0 0 0
0 1 3
0 2 0
1 0 0
1 1 0
1 2 1
2 0 2
2 1 1
2 2 2
2 48 55 0 9
0 0 2
0 1 0
0 2 0
1 0 2
1 1 3
1 2 0
2 0 3
2 1 0
2 2 3
2 37 72 0 9
0 0 0
0 1 3
0 2 0
1 0 0
1 1 0
1 2 2
2 0 2
2 1 1
2 2 3
2 20 58 0 9
0 0 0
0 1 2
0 2 3
1 0 0
1 1 3
1 2 1
2 0 0
2 1 2
2 2 0
2 26 33 0 9
0 0 0
0 1 2
0 2 3
1 0 0
1 1 3
1 2 0
2 0 0
2 1 3
2 2 1
2 54 62 0 9
0 0 2
0 1 0
0 2 2
1 0 0
1 1 0
1 2 3
2 0 3
2 1 2
2 2 0
2 12 40 0 9
0 0 1
0 1 0
0 2 0
1 0 1
1 1 0
1 2 2
2 0 1
2 1 0
2 2 1
2 94 95 0 9
0 0 1
0 1 3
0 2 0
1 0 0
1 1 2
1 2 0
2 0 1
2 1 0
2 2 2
2 39 88 0 9
0 0 1
0 1 1
0 2 0
1 0 2
1 1 2
1 2 0
2 0 2
2 1 0
2 2 0
2 0 3 0 9
0 0 0
0 1 2
0 2 1
1 0 3
1 1 0
1 2 0
2 0 0
2 1 3
2 2 1
2 2 65 0 9
0 0 1
0 1 0
0 2 2
1 0 0
1 1 3
1 2 0
2 0 0
2 1 1
2 2 1
2 17 96 0 9
0 0 3
0 1 0
0 2 0
1 0 1
1 1 3
1 2 0
2 0 0
2 1 3
2 2 2
2 22 66 0 9
0 0 0
0 1 3
0 2 2
1 0 0
1 1 0
1 2 0
2 0 3
2 1 1
2 2 1
2 17 70 0 9
0 0 2
0 1 1
0 2 0
1 0 1
1 1 2
1 2 0
2 0 0
2 1 2
2 2 0
2 73 79 0 9
0 0 0
0 1 3
0 2 0
1 0 3
1 1 0
1 2 3
2 0 1
2 1 1
2 2 0
2 32 81 0 9
0 0 0
0 1 1
0 2 0
1 0 2
1 1 2
1 2 0
2 0 2
2 1 3
2 2 0
2 26 41 0 9
0 0 2
0 1 0
0 2 0
1 0 0
1 1 0
1 2 3
2 0 2
2 1 1
2 2 3
2 14 73 0 9
0 0 2
0 1 0
0 2 0
1 0 1
1 1 2
1 2 0
2 0 0
2 1 3
2 2 1
2 10 43 0 9
0 0 0
0 1 2
0 2 2
1 0 0
1 1 1
1 2 2
2 0 0
2 1 0
2 2 2
2 39 51 0 9
0 0 2
0 1 0
0 2 0
1 0 0
1 1 3
1 2 1
2 0 0
2 1 2
2 2 3
2 28 53 0 9
0 0 2
0 1 0
0 2 3
1 0 0
1 1 0
1 2 1
2 0 1
2 1 0
2 2 3
2 25 78 0 9
0 0 2
0 1 0
0 2 2
1 0 0
1 1 0
1 2 0
2 0 2
2 1 2
2 2 2
2 58 68 0 9
0 0 1
0 1 2
0 2 0
1 0 1
1 1 0
1 2 0
2 0 2
2 1 0
2 2 2
2 16 26 0 9
0 0 3
0 1 2
0 2 3
1 0 3
1 1 2
1 2 0
2 0 0
2 1 0
2 2 0
2 61 79 0 9
0 0 0
0 1 2
0 2 1
1 0 0
1 1 3
1 2 0
2 0 3
2 1 2
2 2 0
2 58 67 0 9
0 0 1
0 1 0
0 2 0
1 0 3
1 1 0
1 2 3
2 0 3
2 1 0
2 2 1
2 57 88 0 9
0 0 1
0 1 0
0 2 0
1 0 2
1 1 1
1 2 0
2 0 1
2 1 1
2 2 0
2 68 94 0 9
0 0 2
0 1 0
0 2 2
1 0 0
1 1 0
1 2 2
2 0 0
2 1 1
2 2 3
2 13 94 0 9
0 0 2
0 1 0
0 2 0
1 0 0
1 1 1
1 2 2
2 0 3
2 1 0
2 2 3
2 55 70 0 9
0 0 1
0 1 2
0 2 0
1 0 1
1 1 0
1 2 0
2 0 1
2 1 0
2 2 3
2 4 53 0 9
0 0 3
0 1 2
0 2 0
1 0 2
1 1 1
1 2 0
2 0 0
2 1 0
2 2 2
2 23 56 0 9
0 0 0
0 1 0
0 2 2
1 0 3
1 1 1
1 2 1
2 0 3
2 1 0
2 2 0
2 81 99 0 9
0 0 0
0 1 1
0 2 0
1 0 2
1 1 2
1 2 3
2 0 0
2 1 0
2 2 3
2 75 85 0 9
0 0 3
0 1 3
0 2 0
1 0 2
1 1 0
1 2 2
2 0 0
2 1 3
2 2 0
2 18 82 0 9
0 0 3
0 1 0
0 2 2
1 0 0
1 1 0
1 2 3
2 0 1
2 1 1
2 2 0
2 47 82 0 9
0 0 0
0 1 1
0 2 3
1 0 0
1 1 0
1 2 2
2 0 0
2 1 1
2 2 3
2 10 45 0 9
0 0 1
0 1 0
0 2 1
1 0 0
1 1 0
1 2 0
2 0 1
2 1 2
2 2 1
2 22 42 0 9
0 0 0
0 1 0
0 2 3
1 0 2
1 1 0
1 2 0
2 0 1
2 1 3
2 2 1
2 4 40 0 9
0 0 1
0 1 0
0 2 0
1 0 2
1 1 1
1 2 0
2 0 0
2 1 2
2 2 1
2 62 97 0 9
0 0 0
0 1 2
0 2 3
1 0 0
1 1 2
1 2 3
2 0 0
2 1 0
2 2 3
2 3 32 0 9
0 0 0
0 1 1
0 2 2
1 0 0
1 1 3
1 2 2
2 0 0
2 1 2
2 2 0
2 88 96 0 9
0 0 3
0 1 2
0 2 0
1 0 0
1 1 0
1 2 2
2 0 0
2 1 3
2 2 2
2 25 47 0 9
0 0 0
0 1 2
0 2 3
1 0 3
1 1 0
1 2 0
2 0 1
2 1 3
2 2 0
2 35 36 0 9
0 0 0
0 1 0
0 2 3
1 0 2
1 1 3
1 2 0
2 0 3
2 1 1
2 2 0
2 16 54 0 9
0 0 1
0 1 1
0 2 0
1 0 3
1 1 3
1 2 3
2 0 0
2 1 0
2 2 0
2 38 84 0 9
0 0 1
0 1 1
0 2 3
1 0 0
1 1 1
1 2 0
2 0 0
2 1 0
2 2 2
2 57 63 0 9
0 0 0
0 1 2
0 2 0
1 0 0
1 1 3
1 2 1
2 0 1
2 1 3
2 2 0
2 32 55 0 9
0 0 0
0 1 1
0 2 1
1 0 1
1 1 3
1 2 0
2 0 0
2 1 2
2 2 0
2 22 97 0 9
0 0 0
0 1 3
0 2 2
1 0 1
1 1 1
1 2 0
2 0 1
2 1 0
2 2 0
2 9 14 0 9
0 0 2
0 1 2
0 2 0
1 0 0
1 1 0
1 2 0
2 0 3
2 1 2
2 2 2
2 45 49 0 9
0 0 0
0 1 1
0 2 1
1 0 3
1 1 1
1 2 0
2 0 0
2 1 0
2 2 1
2 6 20 0 9
0 0 0
0 1 2
0 2 1
1 0 0
1 1 1
1 2 1
2 0 0
2 1 2
2 2 0
2 19 95 0 9
0 0 0
0 1 1
0 2 2
1 0 0
1 1 3
1 2 2
2 0 3
2 1 0
2 2 0
2 23 72 0 9
0 0 2
0 1 0
0 2 3
1 0 0
1 1 2
1 2 0
2 0 3
2 1 2
2 2 0
2 38 67 0 9
0 0 3
0 1 2
0 2 0
1 0 2
1 1 0
1 2 0
2 0 0
2 1 3
2 2 3
2 68 95 0 9
0 0 2
0 1 0
0 2 3
1 0 1
1 1 0
1 2 3
2 0 0
2 1 0
2 2 1
2 0 17 0 9
0 0 0
0 1 3
0 2 0
1 0 2
1 1 0
1 2 3
2 0 0
2 1 3
2 2 2
2 37 39 0 9
0 0 0
0 1 3
0 2 3
1 0 2
1 1 0
1 2 3
2 0 0
2 1 1
2 2 0
2 23 89 0 9
0 0 0
0 1 3
0 2 0
1 0 0
1 1 3
1 2 2
2 0 2
2 1 3
2 2 0
2 3 70 0 9
0 0 2
0 1 0
0 2 3
1 0 0
1 1 2
1 2 0
2 0 0
2 1 1
2 2 3
2 44 45 0 9
0 0 0
0 1 0
0 2 3
1 0 1
1 1 1
1 2 0
2 0 2
2 1 0
2 2 2
2 17 75 0 9
0 0 2
0 1 0
0 2 2
1 0 0
1 1 0
1 2 2
2 0 2
2 1 0
2 2 3
2 16 35 0 9
0 0 0
0 1 2
0 2 0
1 0 0
1 1 2
1 2 3
2 0 1
2 1 0
2 2 2
2 12 66 0 9
0 0 2
0 1 2
0 2 0
1 0 0
1 1 0
1 2 2
2 0 0
2 1 3
2 2 1
2 60 87 0 9
0 0 2
0 1 0
0 2 0
1 0 1
1 1 2
1 2 2
2 0 0
2 1 1
2 2 0
2 4 30 0 9
0 0 0
0 1 0
0 2 0
1 0 3
1 1 2
1 2 2
2 0 0
2 1 1
2 2 3
2 53 90 0 9
0 0 2
0 1 3
0 2 0
1 0 1
1 1 0
1 2 0
2 0 0
2 1 2
2 2 3
2 8 25 0 9
0 0 1
0 1 2
0 2 0
1 0 0
1 1 2
1 2 3
2 0 0
2 1 3
2 2 0
2 59 85 0 9
0 0 1
0 1 1
0 2 0
1 0 2
1 1 3
1 2 3
2 0 0
2 1 0
2 2 0
2 85 89 0 9
0 0 3
0 1 0
0 2 2
1 0 0
1 1 0
1 2 2
2 0 1
2 1 2
2 2 0
2 56 85 0 9
0 0 0
0 1 0
0 2 1
1 0 1
1 1 0
1 2 3
2 0 0
2 1 3
2 2 1
2 51 92 0 9
0 0 0
0 1 1
0 2 3
1 0 0
1 1 0
1 2 3
2 0 0
2 1 2
2 2 1
2 13 70 0 9
0 0 0
0 1 2
0 2 0
1 0 3
1 1 2
1 2 0
2 0 0
2 1 3
2 2 3
2 20 98 0 9
0 0 0
0 1 1
0 2 1
1 0 0
1 1 1
1 2 1
2 0 0
2 1 0
2 2 1
2 89 97 0 9
0 0 3
0 1 0
0 2 3
1 0 0
1 1 1
1 2 0
2 0 0
2 1 1
2 2 3
2 22 60 0 9
0 0 0
0 1 3
0 2 0
1 0 2
1 1 0
1 2 1
2 0 2
2 1 1
2 2 0
2 14 17 0 9
0 0 0
0 1 3
0 2 0
1 0 0
1 1 2
1 2 1
2 0 0
2 1 2
2 2 2
2 1 14 0 9
0 0 2
0 1 2
0 2 0
1 0 1
1 1 0
1 2 1
2 0 3
2 1 0
2 2 0
2 14 19 0 9
0 0 3
0 1 3
0 2 2
1 0 0
1 1 0
1 2 1
2 0 0
2 1 0
2 2 2
2 42 78 0 9
0 0 0
0 1 2
0 2 3
1 0 0
1 1 0
1 2 1
2 0 0
2 1 1
2 2 3
2 25 73 0 9
0 0 1
0 1 0
0 2 0
1 0 3
1 1 0
1 2 2
2 0 2
2 1 1
2 2 0
2 6 81 0 9
0 0 0
0 1 0
0 2 3
1 0 3
1 1 1
1 2 0
2 0 2
2 1 0
2 2 2
2 35 41 0 9
0 0 0
0 1 0
0 2 1
1 0 0
1 1 3
1 2 0
2 0 3
2 1 3
2 2 1
2 2 69 0 9
0 0 1
0 1 2
0 2 0
1 0 1
1 1 0
1 2 3
2 0 0
2 1 0
2 2 3
2 50 77 0 9
0 0 0
0 1 3
0 2 0
1 0 3
1 1 2
1 2 3
2 0 0
2 1 3
2 2 0
2 50 54 0 9
0 0 0
0 1 0
0 2 1
1 0 0
1 1 3
1 2 1
2 0 0
2 1 3
2 2 3
2 54 92 0 9
0 0 0
0 1 2
0 2 2
1 0 0
1 1 0
1 2 3
2 0 3
2 1 0
2 2 1
2 18 38 0 9
0 0 1
0 1 1
0 2 0
1 0 0
1 1 2
1 2 3
2 0 3
2 1 0
2 2 0
2 38 80 0 9
0 0 2
0 1 0
0 2 1
1 0 2
1 1 0
1 2 3
2 0 1
2 1 0
2 2 0
2 28 51 0 9
0 0 2
0 1 3
0 2 1
1 0 0
1 1 2
1 2 2
2 0 0
2 1 0
2 2 0
2 18 89 0 9
0 0 0
0 1 3
0 2 3
1 0 0
1 1 3
1 2 3
2 0 0
2 1 2
2 2 0
2 11 81 0 9
0 0 0
0 1 0
0 2 1
1 0 1
1 1 2
1 2 0
2 0 0
2 1 3
2 2 2
2 8 99 0 9
0 0 1
0 1 3
0 2 3
1 0 0
1 1 0
1 2 0
2 0 1
2 1 0
2 2 2
2 27 67 0 9
0 0 2
0 1 0
0 2 2
1 0 0
1 1 3
1 2 0
2 0 2
2 1 1
2 2 0
2 51 97 0 9
0 0 1
0 1 0
0 2 0
1 0 0
1 1 1
1 2 3
2 0 0
2 1 2
2 2 3
2 22 73 0 9
0 0 1
0 1 2
0 2 0
1 0 0
1 1 3
1 2 0
2 0 1
2 1 1
2 2 0
2 1 29 0 9
0 0 0
0 1 2
0 2 2
1 0 0
1 1 0
1 2 3
2 0 0
2 1 3
2 2 2
2 20 48 0 9
0 0 2
0 1 3
0 2 0
1 0 0
1 1 0
1 2 3
2 0 3
2 1 2
2 2 0
2 23 29 0 9
0 0 0
0 1 2
0 2 0
1 0 2
1 1 0
1 2 2
2 0 0
2 1 1
2 2 2
2 21 56 0 9
0 0 0
0 1 2
0 2 0
1 0 2
1 1 2
1 2 0
2 0 0
2 1 1
2 2 3
2 21 39 0 9
0 0 0
0 1 1
0 2 2
1 0 0
1 1 3
1 2 1
2 0 0
2 1 2
2 2 0
2 11 16 0 9
0 0 1
0 1 1
0 2 0
1 0 0
1 1 2
1 2 3
2 0 0
2 1 0
2 2 3
2 39 54 0 9
0 0 3
0 1 3
0 2 1
1 0 0
1 1 0
1 2 0
2 0 0
2 1 1
2 2 1
2 72 92 0 9
0 0 1
0 1 1
0 2 1
1 0 1
1 1 0
1 2 0
2 0 3
2 1 0
2 2 0
2 48 81 0 9
0 0 0
0 1 2
0 2 3
1 0 0
1 1 3
1 2 0
2 0 3
2 1 0
2 2 2
2 23 37 0 9
0 0 1
0 1 0
0 2 0
1 0 2
1 1 0
1 2 0
2 0 1
2 1 1
2 2 1
2 81 90 0 9
0 0 0
0 1 3
0 2 0
1 0 2
1 1 2
1 2 0
2 0 1
2 1 3
2 2 0
2 62 99 0 9
0 0 2
0 1 0
0 2 0
1 0 0
1 1 0
1 2 2
2 0 2
2 1 1
2 2 3
2 14 16 0 9
0 0 2
0 1 3
0 2 0
1 0 3
1 1 0
1 2 0
2 0 2
2 1 0
2 2 3
2 57 72 0 9
0 0 0
0 1 0
0 2 1
1 0 1
1 1 0
1 2 2
2 0 3
2 1 0
2 2 3
2 68 79 0 9
0 0 0
0 1 1
0 2 0
1 0 0
1 1 1
1 2 1
2 0 3
2 1 2
2 2 0
2 33 89 0 9
0 0 2
0 1 1
0 2 0
1 0 0
1 1 0
1 2 0
2 0 2
2 1 2
2 2 3
2 80 88 0 9
0 0 0
0 1 0
0 2 2
1 0 0
1 1 0
1 2 3
2 0 3
2 1 1
2 2 3
2 7 14 0 9
0 0 0
0 1 2
0 2 3
1 0 3
1 1 0
1 2 0
2 0 3
2 1 0
2 2 2
2 24 42 0 9
0 0 1
0 1 0
0 2 1
1 0 3
1 1 0
1 2 2
2 0 1
2 1 0
2 2 0
2 51 63 0 9
0 0 1
0 1 1
0 2 2
1 0 1
1 1 0
1 2 0
2 0 3
2 1 0
2 2 0
2 37 59 0 9
0 0 3
0 1 0
0 2 3
1 0 3
1 1 1
1 2 0
2 0 0
2 1 0
2 2 3
2 7 39 0 9
0 0 0
0 1 0
0 2 2
1 0 0
1 1 0
1 2 3
2 0 1
2 1 2
2 2 2
2 19 83 0 9
0 0 1
0 1 0
0 2 3
1 0 0
1 1 2
1 2 2
2 0 0
2 1 0
2 2 1
2 4 16 0 9
0 0 2
0 1 1
0 2 0
1 0 1
1 1 3
1 2 0
2 0 3
2 1 0
2 2 0
2 77 92 0 9
0 0 1
0 1 0
0 2 0
1 0 3
1 1 0
1 2 3
2 0 1
2 1 0
2 2 2
2 0 85 0 9
0 0 2
0 1 3
0 2 0
1 0 2
1 1 1
1 2 0
2 0 2
2 1 0
2 2 0
2 49 68 0 9
0 0 1
0 1 0
0 2 1
1 0 0
1 1 1
1 2 1
2 0 0
2 1 0
2 2 1
2 50 99 0 9
0 0 0
0 1 1
0 2 3
1 0 1
1 1 0
1 2 1
2 0 2
2 1 0
2 2 0
2 22 90 0 9
0 0 1
0 1 3
0 2 0
1 0 1
1 1 0
1 2 0
2 0 0
2 1 2
2 2 2
2 3 89 0 9
0 0 0
0 1 0
0 2 0
1 0 2
1 1 0
1 2 3
2 0 3
2 1 2
2 2 1
2 9 31 0 9
0 0 3
0 1 0
0 2 2
1 0 3
1 1 3
1 2 1
2 0 0
2 1 0
2 2 0
2 21 87 0 9
0 0 0
0 1 0
0 2 0
1 0 1
1 1 2
1 2 0
2 0 2
2 1 1
2 2 1
2 38 73 0 9
0 0 3
0 1 0
0 2 3
1 0 1
1 1 0
1 2 2
2 0 0
2 1 2
2 2 0
2 23 75 0 9
0 0 0
0 1 3
0 2 0
1 0 2
1 1 1
1 2 1
2 0 0
2 1 3
2 2 0
2 7 56 0 9
0 0 0
0 1 2
0 2 0
1 0 0
1 1 2
1 2 1
2 0 0
2 1 2
2 2 3
2 65 79 0 9
0 0 3
0 1 0
0 2 0
1 0 3
1 1 1
1 2 0
2 0 0
2 1 3
2 2 3
2 26 87 0 9
0 0 0
0 1 0
0 2 2
1 0 1
1 1 3
1 2 0
2 0 1
2 1 3
2 2 0
2 31 84 0 9
0 0 0
0 1 0
0 2 2
1 0 0
1 1 1
1 2 2
2 0 2
2 1 0
2 2 2
2 29 64 0 9
0 0 0
0 1 2
0 2 2
1 0 2
1 1 2
1 2 0
2 0 3
2 1 0
2 2 0
2 23 95 0 9
0 0 1
0 1 1
0 2 0
1 0 0
1 1 0
1 2 3
2 0 2
2 1 3
2 2 0
2 34 97 0 9
0 0 3
0 1 1
0 2 2
1 0 0
1 1 2
1 2 0
2 0 1
2 1 0
2 2 0
2 40 44 0 9
0 0 3
0 1 1
0 2 0
1 0 0
1 1 3
1 2 3
2 0 0
2 1 0
2 2 2
2 3 28 0 9
0 0 0
0 1 3
0 2 1
1 0 1
1 1 1
1 2 2
2 0 0
2 1 0
2 2 0
2 37 68 0 9
0 0 0
0 1 2
0 2 0
1 0 2
1 1 0
1 2 2
2 0 3
2 1 2
2 2 0
2 51 52 0 9
0 0 0
0 1 0
0 2 3
1 0 3
1 1 1
1 2 0
2 0 1
2 1 0
2 2 1
2 9 23 0 9
0 0 0
0 1 2
0 2 0
1 0 1
1 1 0
1 2 1
2 0 1
2 1 2
2 2 0
2 21 48 0 9
0 0 0
0 1 0
0 2 3
1 0 0
1 1 2
1 2 3
2 0 1
2 1 0
2 2 2
2 13 59 0 9
0 0 2
0 1 2
0 2 0
1 0 0
1 1 1
1 2 0
2 0 2
2 1 0
2 2 3
2 22 31 0 9
0 0 2
0 1 1
0 2 0
1 0 0
1 1 0
1 2 1
2 0 0
2 1 1
2 2 2
2 19 97 0 9
0 0 0
0 1 1
0 2 0
1 0 1
1 1 0
1 2 2
2 0 1
2 1 1
2 2 0
2 51 62 0 9
0 0 1
0 1 1
0 2 0
1 0 0
1 1 0
1 2 2
2 0 0
2 1 1
2 2 3
2 82 97 0 9
0 0 0
0 1 2
0 2 0
1 0 1
1 1 0
1 2 0
2 0 3
2 1 1
2 2 3
2 51 98 0 9
0 0 3
0 1 0
0 2 2
1 0 1
1 1 0
1 2 3
2 0 0
2 1 2
2 2 0
2 86 91 0 9
0 0 1
0 1 0
0 2 0
1 0 0
1 1 1
1 2 3
2 0 0
2 1 1
2 2 3
2 51 87 0 9
0 0 1
0 1 0
0 2 1
1 0 0
1 1 3
1 2 2
2 0 0
2 1 2
2 2 0
2 61 95 0 9
0 0 1
0 1 0
0 2 1
1 0 0
1 1 2
1 2 1
2 0 0
2 1 3
2 2 0
2 15 18 0 9
0 0 0
0 1 2
0 2 0
1 0 1
1 1 0
1 2 0
2 0 2
2 1 1
2 2 2
2 16 27 0 9
0 0 0
0 1 2
0 2 2
1 0 2
1 1 0
1 2 0
2 0 0
2 1 2
2 2 3
2 68 85 0 9
0 0 1
0 1 0
0 2 0
1 0 3
1 1 1
1 2 3
2 0 2
2 1 0
2 2 0
2 27 95 0 9
0 0 0
0 1 0
0 2 3
1 0 2
1 1 1
1 2 2
2 0 0
2 1 0
2 2 2
2 3 71 0 9
0 0 2
0 1 2
0 2 0
1 0 0
1 1 1
1 2 3
2 0 0
2 1 0
2 2 3
2 12 48 0 9
0 0 3
0 1 0
0 2 0
1 0 0
1 1 3
1 2 3
2 0 0
2 1 3
2 2 2
2 73 94 0 9
0 0 0
0 1 0
0 2 1
1 0 2
1 1 1
1 2 1
2 0 3
2 1 0
2 2 0
2 1 3 0 9
0 0 0
0 1 2
0 2 3
1 0 0
1 1 2
1 2 0
2 0 1
2 1 3
2 2 0
2 9 22 0 9
0 0 0
0 1 1
0 2 1
1 0 0
1 1 0
1 2 1
2 0 0
2 1 2
2 2 2
2 79 98 0 9
0 0 0
0 1 0
0 2 3
1 0 0
1 1 1
1 2 3
2 0 3
2 1 0
2 2 3
2 3 81 0 9
0 0 2
0 1 2
0 2 2
1 0 0
1 1 0
1 2 0
2 0 2
2 1 2
2 2 0
2 8 42 0 9
0 0 2
0 1 3
0 2 0
1 0 0
1 1 3
1 2 3
2 0 3
2 1 0
2 2 0
2 21 99 0 9
0 0 0
0 1 2
0 2 0
1 0 2
1 1 0
1 2 0
2 0 2
2 1 2
2 2 2
2 56 87 0 9
0 0 0
0 1 3
0 2 0
1 0 2
1 1 0
1 2 1
2 0 0
2 1 2
2 2 2
2 11 67 0 9
0 0 0
0 1 3
0 2 0
1 0 2
1 1 2
1 2 3
2 0 0
2 1 0
2 2 1
2 26 59 0 9
0 0 0
0 1 0
0 2 3
1 0 0
1 1 1
1 2 3
2 0 1
2 1 1
2 2 0
2 34 67 0 9
0 0 3
0 1 2
0 2 1
1 0 0
1 1 0
1 2 0
2 0 2
2 1 0
2 2 2
2 29 61 0 9
0 0 0
0 1 0
0 2 0
1 0 3
1 1 1
1 2 2
2 0 3
2 1 0
2 2 3
2 72 80 0 9
0 0 3
0 1 2
0 2 0
1 0 0
1 1 2
1 2 0
2 0 2
2 1 0
2 2 3
2 58 89 0 9
0 0 0
0 1 2
0 2 0
1 0 3
1 1 3
1 2 2
2 0 3
2 1 0
2 2 0
2 50 73 0 9
0 0 0
0 1 2
0 2 2
1 0 0
1 1 2
1 2 0
2 0 0
2 1 1
2 2 3
2 85 90 0 9
0 0 0
0 1 0
0 2 3
1 0 1
1 1 0
1 2 2
2 0 0
2 1 3
2 2 1
2 15 62 0 9
0 0 2
0 1 0
0 2 3
1 0 0
1 1 0
1 2 3
2 0 2
2 1 0
2 2 3
2 24 52 0 9
0 0 0
0 1 1
0 2 2
1 0 2
1 1 0
1 2 0
2 0 2
2 1 0
2 2 3
2 30 60 0 9
0 0 0
0 1 1
0 2 2
1 0 1
1 1 1
1 2 0
2 0 0
2 1 1
2 2 0
2 11 70 0 9
0 0 0
0 1 0
0 2 1
1 0 0
1 1 1
1 2 2
2 0 0
2 1 3
2 2 3
2 40 45 0 9
0 0 0
0 1 0
0 2 2
1 0 3
1 1 0
1 2 0
2 0 1
2 1 3
2 2 3
2 41 77 0 9
0 0 0
0 1 0
0 2 2
1 0 1
1 1 0
1 2 2
2 0 3
2 1 0
2 2 3
2 28 76 0 9
0 0 0
0 1 0
0 2 1
1 0 3
1 1 0
1 2 2
2 0 0
2 1 2
2 2 3
2 23 76 0 9
0 0 0
0 1 0
0 2 0
1 0 0
1 1 1
1 2 1
2 0 3
2 1 2
2 2 1
2 1 76 0 9
0 0 2
0 1 0
0 2 0
1 0 1
1 1 1
1 2 0
2 0 0
2 1 3
2 2 1
2 73 86 0 9
0 0 2
0 1 0
0 2 0
1 0 0
1 1 2
1 2 0
2 0 2
2 1 3
2 2 1
2 16 46 0 9
0 0 3
0 1 0
0 2 0
1 0 1
1 1 0
1 2 1
2 0 1
2 1 0
2 2 2
2 29 31 0 9
0 0 0
0 1 3
0 2 3
1 0 0
1 1 3
1 2 2
2 0 0
2 1 0
2 2 2
2 57 61 0 9
0 0 2
0 1 2
0 2 0
1 0 0
1 1 0
1 2 3
2 0 1
2 1 2
2 2 0
2 66 83 0 9
0 0 2
0 1 1
0 2 3
1 0 0
1 1 0
1 2 0
2 0 1
2 1 0
2 2 2
2 62 85 0 9
0 0 1
0 1 3
0 2 0
1 0 1
1 1 1
1 2 0
2 0 0
2 1 2
2 2 0
2 20 73 0 9
0 0 0
0 1 1
0 2 1
1 0 2
1 1 0
1 2 0
2 0 3
2 1 2
2 2 0
2 27 36 0 9
0 0 0
0 1 3
0 2 2
1 0 2
1 1 0
1 2 0
2 0 3
2 1 1
2 2 0
2 57 69 0 9
0 0 0
0 1 1
0 2 0
1 0 1
1 1 0
1 2 1
2 0 3
2 1 3
2 2 0
2 12 28 0 9
0 0 0
0 1 3
0 2 0
1 0 0
1 1 1
1 2 2
2 0 1
2 1 2
2 2 0
2 12 80 0 9
0 0 3
0 1 0
0 2 0
1 0 1
1 1 0
1 2 1
2 0 2
2 1 0
2 2 1
2 57 73 0 9
0 0 1
0 1 3
0 2 0
1 0 1
1 1 3
1 2 0
2 0 0
2 1 0
2 2 3
2 30 65 0 9
0 0 2
0 1 0
0 2 0
1 0 3
1 1 3
1 2 0
2 0 2
2 1 0
2 2 1
2 47 73 0 9
0 0 0
0 1 0
0 2 1
1 0 0
1 1 1
1 2 3
2 0 3
2 1 1
2 2 0
2 29 91 0 9
0 0 0
0 1 0
0 2 1
1 0 2
1 1 1
1 2 0
2 0 0
2 1 1
2 2 3
2 3 83 0 9
0 0 0
0 1 0
0 2 2
1 0 3
1 1 2
1 2 0
2 0 1
2 1 0
2 2 2
2 75 78 0 9
0 0 1
0 1 3
0 2 0
1 0 2
1 1 0
1 2 0
2 0 2
2 1 2
2 2 0
2 33 51 0 9
0 0 2
0 1 2
0 2 0
1 0 0
1 1 0
1 2 0
2 0 2
2 1 1
2 2 1
2 43 56 0 9
0 0 0
0 1 2
0 2 0
1 0 1
1 1 1
1 2 2
2 0 0
2 1 2
2 2 0
2 41 71 0 9
0 0 0
0 1 3
0 2 0
1 0 3
1 1 0
1 2 1
2 0 0
2 1 2
2 2 3
2 25 77 0 9
0 0 1
0 1 0
0 2 0
1 0 0
1 1 0
1 2 1
2 0 1
2 1 2
2 2 3
2 35 85 0 9
0 0 1
0 1 0
0 2 2
1 0 0
1 1 2
1 2 3
2 0 0
2 1 0
2 2 2
2 5 74 0 9
0 0 0
0 1 2
0 2 2
1 0 0
1 1 3
1 2 1
2 0 0
2 1 0
2 2 1
2 24 89 0 9
0 0 3
0 1 0
0 2 0
1 0 2
1 1 0
1 2 3
2 0 3
2 1 0
2 2 1
2 2 94 0 9
0 0 3
0 1 2
0 2 0
1 0 1
1 1 0
1 2 3
2 0 1
2 1 0
2 2 0
2 51 54 0 9
0 0 2
0 1 0
0 2 3
1 0 1
1 1 0
1 2 0
2 0 0
2 1 3
2 2 1
2 54 87 0 9
0 0 1
0 1 3
0 2 0
1 0 3
1 1 1
1 2 0
2 0 0
2 1 0
2 2 2
2 13 21 0 9
0 0 3
0 1 0
0 2 1
1 0 0
1 1 3
1 2 3
2 0 0
2 1 2
2 2 0
2 39 96 0 9
0 0 3
0 1 0
0 2 3
1 0 0
1 1 2
1 2 0
2 0 1
2 1 1
2 2 0
2 30 49 0 9
0 0 1
0 1 0
0 2 2
1 0 2
1 1 1
1 2 0
2 0 0
2 1 2
2 2 0
2 29 36 0 9
0 0 3
0 1 0
0 2 0
1 0 2
1 1 2
1 2 3
2 0 0
2 1 0
2 2 2
2 13 27 0 9
0 0 3
0 1 2
0 2 0
1 0 1
1 1 2
1 2 1
2 0 0
2 1 0
2 2 0
2 22 53 0 9
0 0 3
0 1 3
0 2 0
1 0 0
1 1 0
1 2 0
2 0 3
2 1 1
2 2 2
2 33 97 0 9
0 0 0
0 1 1
0 2 2
1 0 0
1 1 3
1 2 0
2 0 2
2 1 1
2 2 0
2 25 86 0 9
0 0 1
0 1 0
0 2 3
1 0 2
1 1 0
1 2 0
2 0 2
2 1 2
2 2 0
2 23 78 0 9
0 0 0
0 1 2
0 2 3
1 0 3
1 1 2
1 2 1
2 0 0
2 1 0
2 2 0
2 10 67 0 9
0 0 1
0 1 0
0 2 3
1 0 0
1 1 2
1 2 1
2 0 1
2 1 0
2 2 0
2 8 24 0 9
0 0 0
0 1 1
0 2 0
1 0 2
1 1 0
1 2 2
2 0 3
2 1 1
2 2 0
2 44 65 0 9
0 0 0
0 1 0
0 2 3
1 0 1
1 1 1
1 2 1
2 0 2
2 1 0
2 2 0
2 47 58 0 9
0 0 0
0 1 3
0 2 3
1 0 0
1 1 0
1 2 1
2 0 0
2 1 1
2 2 2
2 82 96 0 9
0 0 1
0 1 0
0 2 0
1 0 0
1 1 1
1 2 2
2 0 0
2 1 3
2 2 1
2 47 48 0 9
0 0 0
0 1 1
0 2 0
1 0 2
1 1 3
1 2 1
2 0 2
2 1 0
2 2 0
2 43 74 0 9
0 0 3
0 1 0
0 2 1
1 0 2
1 1 0
1 2 0
2 0 3
2 1 1
2 2 0
2 47 80 0 9
0 0 0
0 1 1
0 2 0
1 0 3
1 1 1
1 2 0
2 0 3
2 1 0
2 2 3
2 23 66 0 9
0 0 0
0 1 1
0 2 0
1 0 3
1 1 0
1 2 1
2 0 0
2 1 1
2 2 3
2 23 82 0 9
0 0 3
0 1 0
0 2 2
1 0 0
1 1 0
1 2 0
2 0 1
2 1 3
2 2 3
2 74 91 0 9
0 0 1
0 1 1
0 2 0
1 0 3
1 1 3
1 2 0
2 0 0
2 1 1
2 2 0
2 39 97 0 9
0 0 3
0 1 2
0 2 3
1 0 1
1 1 0
1 2 1
2 0 0
2 1 0
2 2 0
2 36 37 0 9
0 0 1
0 1 2
0 2 1
1 0 2
1 1 0
1 2 0
2 0 0
2 1 0
2 2 2
2 68 78 0 9
0 0 0
0 1 0
0 2 0
1 0 0
1 1 3
1 2 2
2 0 1
2 1 2
2 2 2
2 19 85 0 9
0 0 1
0 1 0
0 2 1
1 0 1
1 1 0
1 2 3
2 0 0
2 1 0
2 2 3
2 29 58 0 9
0 0 2
0 1 1
0 2 0
1 0 3
1 1 0
1 2 0
2 0 1
2 1 0
2 2 3
2 36 76 0 9
0 0 0
0 1 2
0 2 0
1 0 1
1 1 0
1 2 3
2 0 0
2 1 3
2 2 3
2 64 80 0 9
0 0 3
0 1 1
0 2 0
1 0 0
1 1 3
1 2 2
2 0 0
2 1 2
2 2 0
2 0 56 0 9
0 0 0
0 1 2
0 2 3
1 0 0
1 1 3
1 2 2
2 0 0
2 1 2
2 2 0
2 3 42 0 9
0 0 2
0 1 3
0 2 0
1 0 0
1 1 3
1 2 0
2 0 1
2 1 0
2 2 3
2 26 60 0 9
0 0 1
0 1 2
0 2 0
1 0 0
1 1 1
1 2 0
2 0 1
2 1 0
2 2 3
2 10 48 0 9
0 0 1
0 1 0
0 2 0
1 0 1
1 1 1
1 2 0
2 0 3
2 1 3
2 2 0
2 6 66 0 9
0 0 0
0 1 0
0 2 2
1 0 3
1 1 0
1 2 3
2 0 0
2 1 2
2 2 3
2 18 77 0 9
0 0 0
0 1 0
0 2 2
1 0 0
1 1 3
1 2 0
2 0 2
2 1 2
2 2 3
2 24 62 0 9
0 0 0
0 1 2
0 2 2
1 0 0
1 1 3
1 2 0
2 0 2
2 1 3
2 2 0
2 33 40 0 9
0 0 3
0 1 0
0 2 1
1 0 3
1 1 3
1 2 0
2 0 0
2 1 3
2 2 0
2 1 6 0 9
0 0 1
0 1 0
0 2 3
1 0 2
1 1 0
1 2 1
2 0 0
2 1 3
2 2 0
2 16 47 0 9
0 0 3
0 1 0
0 2 0
1 0 0
1 1 3
1 2 2
2 0 2
2 1 2
2 2 0
2 51 78 0 9
0 0 0
0 1 0
0 2 0
1 0 3
1 1 1
1 2 1
2 0 1
2 1 0
2 2 2
2 5 80 0 9
0 0 1
0 1 0
0 2 0
1 0 0
1 1 3
1 2 0
2 0 2
2 1 1
2 2 3
2 57 81 0 9
0 0 1
0 1 1
0 2 0
1 0 0
1 1 0
1 2 0
2 0 2
2 1 3
2 2 2
2 66 68 0 9
0 0 0
0 1 1
0 2 0
1 0 2
1 1 0
1 2 0
2 0 3
2 1 1
2 2 3
2 11 92 0 9
0 0 0
0 1 2
0 2 3
1 0 3
1 1 3
1 2 0
2 0 0
2 1 3
2 2 0
2 7 83 0 9
0 0 0
0 1 0
0 2 0
1 0 1
1 1 1
1 2 0
2 0 3
2 1 3
2 2 1
2 28 58 0 9
0 0 3
0 1 0
0 2 0
1 0 0
1 1 3
1 2 1
2 0 0
2 1 2
2 2 1
2 34 42 0 9
0 0 0
0 1 2
0 2 1
1 0 1
1 1 2
1 2 0
2 0 0
2 1 0
2 2 1
2 20 45 0 9
0 0 0
0 1 2
0 2 1
1 0 0
1 1 3
1 2 2
2 0 3
2 1 0
2 2 0
2 54 58 0 9
0 0 3
0 1 1
0 2 0
1 0 0
1 1 0
1 2 2
2 0 1
2 1 0
2 2 3
2 30 46 0 9
0 0 1
0 1 0
0 2 0
1 0 0
1 1 2
1 2 0
2 0 3
2 1 3
2 2 3
2 50 98 0 9
0 0 2
0 1 2
0 2 0
1 0 1
1 1 2
1 2 0
2 0 0
2 1 2
2 2 0
2 28 29 0 9
0 0 0
0 1 0
0 2 0
1 0 3
1 1 2
1 2 1
2 0 3
2 1 0
2 2 3
2 0 89 0 9
0 0 0
0 1 0
0 2 0
1 0 2
1 1 1
1 2 0
2 0 2
2 1 1
2 2 2
2 52 97 0 9
0 0 0
0 1 3
0 2 0
1 0 2
1 1 2
1 2 2
2 0 1
2 1 0
2 2 0
2 65 81 0 9
0 0 3
0 1 2
0 2 0
1 0 0
1 1 1
1 2 0
2 0 0
2 1 3
2 2 1
2 53 99 0 9
0 0 3
0 1 2
0 2 0
1 0 3
1 1 0
1 2 2
2 0 0
2 1 1
2 2 0
2 29 47 0 9
0 0 0
0 1 1
0 2 0
1 0 2
1 1 0
1 2 0
2 0 1
2 1 3
2 2 2
2 64 84 0 9
0 0 0
0 1 0
0 2 1
1 0 1
1 1 1
1 2 0
2 0 2
2 1 2
2 2 0
2 74 77 0 9
0 0 0
0 1 0
0 2 0
1 0 2
1 1 0
1 2 3
2 0 1
2 1 2
2 2 1
2 5 59 0 9
0 0 0
0 1 0
0 2 1
1 0 1
1 1 0
1 2 1
2 0 2
2 1 0
2 2 1
2 16 49 0 9
0 0 0
0 1 3
0 2 0
1 0 3
1 1 2
1 2 0
2 0 0
2 1 2
2 2 1
2 50 63 0 9
0 0 3
0 1 0
0 2 3
1 0 0
1 1 2
1 2 2
2 0 3
2 1 0
2 2 0
2 74 76 0 9
0 0 0
0 1 2
0 2 2
1 0 0
1 1 3
1 2 0
2 0 0
2 1 1
2 2 3
2 76 94 0 9
0 0 1
0 1 1
0 2 1
1 0 1
1 1 1
1 2 0
2 0 0
2 1 0
2 2 0
2 15 82 0 9
0 0 1
0 1 0
0 2 3
1 0 1
1 1 3
1 2 1
2 0 0
2 1 0
2 2 0
2 29 62 0 9
0 0 0
0 1 2
0 2 3
1 0 0
1 1 0
1 2 1
2 0 1
2 1 3
2 2 0
1 0 512409557603043100 3
0 0
1 3
2 0
1 1 512409557603043100 3
0 0
1 1
2 0
1 2 512409557603043100 3
0 2
1 1
2 0
1 3 512409557603043100 3
0 2
1 0
2 3
1 4 512409557603043100 3
0 2
1 0
2 0
1 5 512409557603043100 3
0 0
1 1
2 1
1 6 512409557603043100 3
0 0
1 0
2 0
1 7 512409557603043100 3
0 0
1 1
2 0
1 8 512409557603043100 3
0 1
1 2
2 0
1 9 512409557603043100 3
0 0
1 1
2 1
1 10 512409557603043100 3
0 2
1 1
2 0
1 11 512409557603043100 3
0 1
1 0
2 1
1 12 512409557603043100 3
0 3
1 3
2 0
1 13 512409557603043100 3
0 0
1 0
2 3
1 14 512409557603043100 3
0 3
1 0
2 0
1 15 512409557603043100 3
0 0
1 1
2 2
1 16 512409557603043100 3
0 1
1 0
2 2
1 17 512409557603043100 3
0 1
1 0
2 0
1 18 512409557603043100 3
0 0
1 0
2 0
1 19 512409557603043100 3
0 2
1 0
2 2
1 20 512409557603043100 3
0 0
1 0
2 2
1 21 512409557603043100 3
0 1
1 2
2 0
1 22 512409557603043100 3
0 0
1 2
2 1
1 23 512409557603043100 3
0 1
1 0
2 2
1 24 512409557603043100 3
0 2
1 0
2 1
1 25 512409557603043100 3
0 1
1 0
2 2
1 26 512409557603043100 3
0 2
1 2
2 0
1 27 512409557603043100 3
0 0
1 0
2 0
1 28 512409557603043100 3
0 0
1 3
2 2
1 29 512409557603043100 3
0 0
1 0
2 2
1 30 512409557603043100 3
0 1
1 0
2 2
1 31 512409557603043100 3
0 1
1 2
2 0
1 32 512409557603043100 3
0 1
1 0
2 1
1 33 512409557603043100 3
0 3
1 3
2 0
1 34 512409557603043100 3
0 2
1 0
2 2
1 35 512409557603043100 3
0 1
1 0
2 1
1 36 512409557603043100 3
0 1
1 0
2 1
1 37 512409557603043100 3
0 2
1 3
2 0
1 38 512409557603043100 3
0 1
1 0
2 1
1 39 512409557603043100 3
0 3
1 0
2 1
1 40 512409557603043100 3
0 0
1 0
2 0
1 41 512409557603043100 3
0 0
1 0
2 2
1 42 512409557603043100 3
0 0
1 2
2 1
1 43 512409557603043100 3
0 3
1 0
2 2
1 44 512409557603043100 3
0 1
1 0
2 1
1 45 512409557603043100 3
0 0
1 0
2 2
1 46 512409557603043100 3
0 1
1 0
2 2
1 47 512409557603043100 3
0 0
1 2
2 2
1 48 512409557603043100 3
0 0
1 2
2 2
1 49 512409557603043100 3
0 1
1 0
2 1
1 50 512409557603043100 3
0 2
1 1
2 0
1 51 512409557603043100 3
0 0
1 2
2 1
1 52 512409557603043100 3
0 1
1 0
2 0
1 53 512409557603043100 3
0 0
1 3
2 2
1 54 512409557603043100 3
0 2
1 0
2 0
1 55 512409557603043100 3
0 0
1 2
2 2
1 56 512409557603043100 3
0 0
1 3
2 2
1 57 512409557603043100 3
0 1
1 0
2 1
1 58 512409557603043100 3
0 0
1 1
2 1
1 59 512409557603043100 3
0 2
1 0
2 0
1 60 512409557603043100 3
0 0
1 1
2 0
1 61 512409557603043100 3
0 0
1 3
2 2
1 62 512409557603043100 3
0 1
1 1
2 0
1 63 512409557603043100 3
0 0
1 0
2 0
1 64 512409557603043100 3
0 2
1 1
2 0
1 65 512409557603043100 3
0 2
1 2
2 0
1 66 512409557603043100 3
0 1
1 3
2 0
1 67 512409557603043100 3
0 0
1 2
2 0
1 68 512409557603043100 3
0 0
1 2
2 0
1 69 512409557603043100 3
0 0
1 0
2 2
1 70 512409557603043100 3
0 0
1 1
2 0
1 71 512409557603043100 3
0 1
1 1
2 0
1 72 512409557603043100 3
0 0
1 0
2 0
1 73 512409557603043100 3
0 0
1 0
2 1
1 74 512409557603043100 3
0 0
1 2
2 1
1 75 512409557603043100 3
0 0
1 2
2 0
1 76 512409557603043100 3
0 0
1 0
2 0
1 77 512409557603043100 3
0 0
1 3
2 0
1 78 512409557603043100 3
0 0
1 3
2 1
1 79 512409557603043100 3
0 0
1 0
2 0
1 80 512409557603043100 3
0 0
1 2
2 1
1 81 512409557603043100 3
0 0
1 0
2 0
1 82 512409557603043100 3
0 3
1 3
2 0
1 83 512409557603043100 3
0 0
1 0
2 0
1 84 512409557603043100 3
0 0
1 2
2 2
1 85 512409557603043100 3
0 3
1 3
2 0
1 86 512409557603043100 3
0 2
1 0
2 3
1 87 512409557603043100 3
0 2
1 0
2 0
1 88 512409557603043100 3
0 3
1 0
2 2
1 89 512409557603043100 3
0 1
1 0
2 1
1 90 512409557603043100 3
0 0
1 3
2 1
1 91 512409557603043100 3
0 0
1 0
2 0
1 92 512409557603043100 3
0 1
1 1
2 0
1 93 512409557603043100 3
0 2
1 0
2 0
1 94 512409557603043100 3
0 0
1 0
2 1
1 95 512409557603043100 3
0 0
1 0
2 2
1 96 512409557603043100 3
0 0
1 3
2 2
1 97 512409557603043100 3
0 0
1 2
2 2
1 98 512409557603043100 3
0 1
1 0
2 2
1 99 512409557603043100 3
0 0
1 0
2 1
0 54 0
